
   AbsCon 1.41 (January, 2014) - defaultConfiguration

   
   instance
        framework=CSP  name=Isomorphism-/cluster/gpg/ciaran/sip-benchmarks/benchmarks/LV/g11-/cluster/gpg/ciaran/sip-benchmarks/benchmarks/LV/g50
        parameters=/cluster/gpg/ciaran/sip-benchmarks/benchmarks/LV/g11,/cluster/gpg/ciaran/sip-benchmarks/benchmarks/LV/g50
      

   loading variables...
        nbVariables=42  nbDomainTypes=1  nbTotalValues=5376  domainSizes=(128:42)
          =>  wckTime=0.195  cpuTime=0.297  mem=10M267

   loading objectives...

   loading constraints...
        nbConstraints=115  nbSpecificConstraints=1  nbExtensionStructures=(1,shared:113)  nbConflictsStructures=(1,shared:113,unbuilt:1)
        degrees=(2:1)(3:1)(4:4)...(8:11)(9:2)(11:1)  arities=(2:114)(42:1)  types=(AllDifferent:1)(ConstraintHardExtensionV-Bits:114)
          =>  wckTime=0.312  cpuTime=0.4  mem=5M505

   INFO : <!-- Start saving the XML representation -->

   INFO : <!-- Stop saving the XML representation of g50.xml -->

   Solver SolverBacktrack being built... 
          =>  wckTime=0.489  cpuTime=0.552  mem=20M430

    instantiation X0=23 X1=12 X2=19 X3=9 X4=5 X5=44 X6=22 X7=27 X8=26 X9=56 X10=77 X11=11 X12=89 X13=2 X14=1 X15=6 X16=7 X17=78 X18=61 X19=0 X20=36 X21=54 X22=46 X23=13 X24=18 X25=38 X26=32 X27=64 X28=73 X29=33 X30=50 X31=15 X32=34 X33=31 X34=4 X35=42 X36=30 X37=101 X38=72 X39=79 X40=96 X41=86 

    solution X0=23 X1=12 X2=19 X3=9 X4=5 X5=44 X6=22 X7=27 X8=26 X9=56 X10=77 X11=11 X12=89 X13=2 X14=1 X15=6 X16=7 X17=78 X18=61 X19=0 X20=36 X21=54 X22=46 X23=13 X24=18 X25=38 X26=32 X27=64 X28=73 X29=33 X30=50 X31=15 X32=34 X33=31 X34=4 X35=42 X36=30 X37=101 X38=72 X39=79 X40=96 X41=86 

   
   search
        run=0  nbConstraintChecks=115  depth=(min:43,max:41,avg:0)  nbEffectivePropagations=608  nbRevisions=2417  nbUselessRevisions=2414
        nbAssignments=42  nbFailedAssignments=0  nbBacktracks=0  nbVisitedNodes=43  nbRestartNogoods=0  nbFoundSolutions=1  upperBound=9223372036854775807
          =>  wckTime=0.813  cpuTime=1.345  mem=19M693

   
   global
        nbConstraintChecks=115  nbEffectivePropagations=608  nbRevisions=2417  nbUselessRevisions=2414  nbRestartNogoods=0  solvingWckTime=0.813
        expiredTime=no  totalExploration=no  nbFoundSolutions=1  firstSolutionCpuTime=1.342  Stop=REACHED_GOAL
          =>  wckTime=1.304  cpuTime=1.346  mem=19M693

s SATISFIABLE
v X0=23 X1=12 X2=19 X3=9 X4=5 X5=44 X6=22 X7=27 X8=26 X9=56 X10=77 X11=11 X12=89 X13=2 X14=1 X15=6 X16=7 X17=78 X18=61 X19=0 X20=36 X21=54 X22=46 X23=13 X24=18 X25=38 X26=32 X27=64 X28=73 X29=33 X30=50 X31=15 X32=34 X33=31 X34=4 X35=42 X36=30 X37=101 X38=72 X39=79 X40=96 X41=86 
d NODES 42

   totalWckTime=1.195  totalCpuTime=1.346
